(set-info :smt-lib-version 2.6)
(set-logic UFNIA)
(set-info :source |
Generated by: Geoff Sutcliffe
Generated on: 2026-03-11
Generator: TPTPWorld
Application: Benchmarking automated theorem provers
Time limit: 120.0

These benchmarks are translations from the TPTP Library (Thousands of
Problems for Theorem Provers), see http://www.cs.miami.edu/~tptp/

The TPTP is maintained by Geoff Sutcliffe, and he contributed this
selection of benchmarks to SMT-LIB.  They were exported from the
v9.2.1 realease of TPTP.
|)
(set-info :category "industrial")
(set-info :status "unknown")
; SZS status Success
(declare-sort $$unsorted 0)
(declare-sort tptp.uni 0)
(declare-sort tptp.ty 0)
(declare-fun tptp.sort (tptp.ty tptp.uni) Bool)
(declare-fun tptp.witness (tptp.ty) tptp.uni)
(assert (forall ((A tptp.ty)) (tptp.sort A (tptp.witness A))))
(declare-fun tptp.int () tptp.ty)
(declare-fun tptp.real () tptp.ty)
(declare-sort tptp.bool 0)
(declare-fun tptp.bool1 () tptp.ty)
(declare-fun tptp.true () tptp.bool)
(declare-fun tptp.false () tptp.bool)
(declare-fun tptp.match_bool (tptp.ty tptp.bool tptp.uni tptp.uni) tptp.uni)
(assert (forall ((A tptp.ty) (X tptp.bool) (X1 tptp.uni) (X2 tptp.uni)) (tptp.sort A (tptp.match_bool A X X1 X2))))
(assert (forall ((A tptp.ty) (Z tptp.uni) (Z1 tptp.uni)) (=> (tptp.sort A Z) (= (tptp.match_bool A tptp.true Z Z1) Z))))
(assert (forall ((A tptp.ty) (Z tptp.uni) (Z1 tptp.uni)) (=> (tptp.sort A Z1) (= (tptp.match_bool A tptp.false Z Z1) Z1))))
(assert (not (= tptp.true tptp.false)))
(assert (forall ((U tptp.bool)) (or (= U tptp.true) (= U tptp.false))))
(declare-sort tptp.tuple0 0)
(declare-fun tptp.tuple01 () tptp.ty)
(declare-fun tptp.tuple02 () tptp.tuple0)
(assert (forall ((U tptp.tuple0)) (= U tptp.tuple02)))
(declare-fun tptp.qtmark () tptp.ty)
(assert (forall ((X Int) (Y Int) (Z Int)) (=> (<= X Y) (=> (<= 0 Z) (<= (* X Z) (* Y Z))))))
(declare-fun tptp.map (tptp.ty tptp.ty) tptp.ty)
(declare-fun tptp.get (tptp.ty tptp.ty tptp.uni tptp.uni) tptp.uni)
(assert (forall ((A tptp.ty) (B tptp.ty) (X tptp.uni) (X1 tptp.uni)) (tptp.sort B (tptp.get B A X X1))))
(declare-fun tptp.set (tptp.ty tptp.ty tptp.uni tptp.uni tptp.uni) tptp.uni)
(assert (forall ((A tptp.ty) (B tptp.ty) (X tptp.uni) (X1 tptp.uni) (X2 tptp.uni)) (tptp.sort (tptp.map A B) (tptp.set B A X X1 X2))))
(assert (forall ((A tptp.ty) (B tptp.ty) (M tptp.uni) (A1 tptp.uni) (A2 tptp.uni) (B1 tptp.uni)) (=> (tptp.sort B B1) (=> (= A1 A2) (= (tptp.get B A (tptp.set B A M A1 B1) A2) B1)))))
(assert (forall ((A tptp.ty) (B tptp.ty) (M tptp.uni) (A1 tptp.uni) (A2 tptp.uni)) (=> (tptp.sort A A1) (=> (tptp.sort A A2) (forall ((B1 tptp.uni)) (=> (not (= A1 A2)) (= (tptp.get B A (tptp.set B A M A1 B1) A2) (tptp.get B A M A2))))))))
(declare-fun tptp.const (tptp.ty tptp.ty tptp.uni) tptp.uni)
(assert (forall ((A tptp.ty) (B tptp.ty) (X tptp.uni)) (tptp.sort (tptp.map A B) (tptp.const B A X))))
(assert (forall ((A tptp.ty) (B tptp.ty) (B1 tptp.uni) (A1 tptp.uni)) (=> (tptp.sort B B1) (= (tptp.get B A (tptp.const B A B1) A1) B1))))
(declare-fun tptp.array (tptp.ty) tptp.ty)
(declare-fun tptp.mk_array (tptp.ty Int tptp.uni) tptp.uni)
(assert (forall ((A tptp.ty) (X Int) (X1 tptp.uni)) (tptp.sort (tptp.array A) (tptp.mk_array A X X1))))
(declare-fun tptp.length (tptp.ty tptp.uni) Int)
(assert (forall ((A tptp.ty) (U Int) (U1 tptp.uni)) (= (tptp.length A (tptp.mk_array A U U1)) U)))
(declare-fun tptp.elts (tptp.ty tptp.uni) tptp.uni)
(assert (forall ((A tptp.ty) (X tptp.uni)) (tptp.sort (tptp.map tptp.int A) (tptp.elts A X))))
(assert (forall ((A tptp.ty) (U Int) (U1 tptp.uni)) (=> (tptp.sort (tptp.map tptp.int A) U1) (= (tptp.elts A (tptp.mk_array A U U1)) U1))))
(assert (forall ((A tptp.ty) (U tptp.uni)) (= U (tptp.mk_array A (tptp.length A U) (tptp.elts A U)))))
(declare-fun tptp.get1 (tptp.ty tptp.uni Int) tptp.uni)
(assert (forall ((A tptp.ty) (X tptp.uni) (X1 Int)) (tptp.sort A (tptp.get1 A X X1))))
(declare-fun tptp.t2tb (Int) tptp.uni)
(assert (forall ((X Int)) (tptp.sort tptp.int (tptp.t2tb X))))
(declare-fun tptp.tb2t (tptp.uni) Int)
(assert (forall ((I Int)) (= (tptp.tb2t (tptp.t2tb I)) I)))
(assert (forall ((J tptp.uni)) (= (tptp.t2tb (tptp.tb2t J)) J)))
(assert (forall ((A tptp.ty) (A1 tptp.uni) (I Int)) (= (tptp.get1 A A1 I) (tptp.get A tptp.int (tptp.elts A A1) (tptp.t2tb I)))))
(declare-fun tptp.set1 (tptp.ty tptp.uni Int tptp.uni) tptp.uni)
(assert (forall ((A tptp.ty) (X tptp.uni) (X1 Int) (X2 tptp.uni)) (tptp.sort (tptp.array A) (tptp.set1 A X X1 X2))))
(assert (forall ((A tptp.ty) (A1 tptp.uni) (I Int) (V tptp.uni)) (= (tptp.set1 A A1 I V) (tptp.mk_array A (tptp.length A A1) (tptp.set A tptp.int (tptp.elts A A1) (tptp.t2tb I) V)))))
(declare-fun tptp.make (tptp.ty Int tptp.uni) tptp.uni)
(assert (forall ((A tptp.ty) (X Int) (X1 tptp.uni)) (tptp.sort (tptp.array A) (tptp.make A X X1))))
(assert (forall ((A tptp.ty) (N Int) (V tptp.uni)) (= (tptp.make A N V) (tptp.mk_array A N (tptp.const A tptp.int V)))))
(declare-sort tptp.elt 0)
(declare-fun tptp.elt1 () tptp.ty)
(declare-sort tptp.tree 0)
(declare-fun tptp.tree1 () tptp.ty)
(declare-fun tptp.null () tptp.tree)
(declare-fun tptp.node (tptp.tree tptp.elt tptp.tree) tptp.tree)
(declare-fun tptp.match_tree (tptp.ty tptp.tree tptp.uni tptp.uni) tptp.uni)
(assert (forall ((A tptp.ty) (X tptp.tree) (X1 tptp.uni) (X2 tptp.uni)) (tptp.sort A (tptp.match_tree A X X1 X2))))
(assert (forall ((A tptp.ty) (Z tptp.uni) (Z1 tptp.uni)) (=> (tptp.sort A Z) (= (tptp.match_tree A tptp.null Z Z1) Z))))
(assert (forall ((A tptp.ty) (Z tptp.uni) (Z1 tptp.uni) (U tptp.tree) (U1 tptp.elt) (U2 tptp.tree)) (=> (tptp.sort A Z1) (= (tptp.match_tree A (tptp.node U U1 U2) Z Z1) Z1))))
(assert (forall ((V tptp.tree) (V1 tptp.elt) (V2 tptp.tree)) (not (= tptp.null (tptp.node V V1 V2)))))
(declare-fun tptp.node_proj_1 (tptp.tree) tptp.tree)
(assert (forall ((U tptp.tree) (U1 tptp.elt) (U2 tptp.tree)) (= (tptp.node_proj_1 (tptp.node U U1 U2)) U)))
(declare-fun tptp.node_proj_2 (tptp.tree) tptp.elt)
(assert (forall ((U tptp.tree) (U1 tptp.elt) (U2 tptp.tree)) (= (tptp.node_proj_2 (tptp.node U U1 U2)) U1)))
(declare-fun tptp.node_proj_3 (tptp.tree) tptp.tree)
(assert (forall ((U tptp.tree) (U1 tptp.elt) (U2 tptp.tree)) (= (tptp.node_proj_3 (tptp.node U U1 U2)) U2)))
(assert (forall ((U tptp.tree)) (or (= U tptp.null) (= U (tptp.node (tptp.node_proj_1 U) (tptp.node_proj_2 U) (tptp.node_proj_3 U))))))
(declare-fun tptp.contains (tptp.tree tptp.elt) Bool)
(assert (forall ((X tptp.elt)) (and (not (tptp.contains tptp.null X)) (forall ((X1 tptp.tree) (X2 tptp.elt) (X3 tptp.tree)) (= (tptp.contains (tptp.node X1 X2 X3) X) (or (tptp.contains X1 X) (= X X2) (tptp.contains X3 X)))))))
(declare-fun tptp.t2tb1 (tptp.elt) tptp.uni)
(assert (forall ((X tptp.elt)) (tptp.sort tptp.elt1 (tptp.t2tb1 X))))
(declare-fun tptp.tb2t1 (tptp.uni) tptp.elt)
(assert (forall ((I tptp.elt)) (= (tptp.tb2t1 (tptp.t2tb1 I)) I)))
(assert (forall ((J tptp.uni)) (=> (tptp.sort tptp.elt1 J) (= (tptp.t2tb1 (tptp.tb2t1 J)) J))))
(declare-sort tptp.map_int_elt 0)
(declare-fun tptp.t2tb2 (tptp.map_int_elt) tptp.uni)
(assert (forall ((X tptp.map_int_elt)) (tptp.sort (tptp.map tptp.int tptp.elt1) (tptp.t2tb2 X))))
(declare-fun tptp.tb2t2 (tptp.uni) tptp.map_int_elt)
(assert (forall ((I tptp.map_int_elt)) (= (tptp.tb2t2 (tptp.t2tb2 I)) I)))
(assert (forall ((J tptp.uni)) (=> (tptp.sort (tptp.map tptp.int tptp.elt1) J) (= (tptp.t2tb2 (tptp.tb2t2 J)) J))))
(assert (not (forall ((T tptp.tree) (A Int) (A1 tptp.map_int_elt) (Start Int)) (let ((_let_1 (<= Start A))) (=> (and (<= 0 A) (<= 0 Start) _let_1) (and (=> (= T tptp.null) (and (<= Start Start) _let_1 (forall ((I Int)) (=> (and (<= Start I) (< I Start)) (tptp.contains T (tptp.tb2t1 (tptp.get tptp.elt1 tptp.int (tptp.t2tb2 A1) (tptp.t2tb I)))))))) (forall ((X tptp.tree) (X1 tptp.elt) (X2 tptp.tree)) (=> (= T (tptp.node X X1 X2)) (and (not (= T tptp.null)) (forall ((X3 tptp.tree) (X4 tptp.elt) (X5 tptp.tree)) (=> (= T (tptp.node X3 X4 X5)) (or (= X3 X) (= X5 X)))) (<= 0 Start) (<= Start A) (forall ((A2 tptp.map_int_elt) (Res Int)) (let ((_let_1 (<= Res A))) (let ((_let_2 (<= Start Res))) (let ((_let_3 (not (= Res A)))) (=> (and (<= 0 A) _let_2 _let_1 (forall ((I Int)) (let ((_let_1 (tptp.t2tb I))) (=> (and (<= 0 I) (< I Start)) (= (tptp.tb2t1 (tptp.get tptp.elt1 tptp.int (tptp.t2tb2 A2) _let_1)) (tptp.tb2t1 (tptp.get tptp.elt1 tptp.int (tptp.t2tb2 A1) _let_1)))))) (forall ((I Int)) (=> (and (<= Start I) (< I Res)) (tptp.contains X (tptp.tb2t1 (tptp.get tptp.elt1 tptp.int (tptp.t2tb2 A2) (tptp.t2tb I))))))) (and (=> _let_3 (and (<= 0 Res) (< Res A) (forall ((A3 tptp.map_int_elt)) (let ((_let_1 (+ Res 1))) (=> (and (<= 0 A) (= A3 (tptp.tb2t2 (tptp.set tptp.elt1 tptp.int (tptp.t2tb2 A2) (tptp.t2tb Res) (tptp.t2tb1 X1))))) (and (not (= T tptp.null)) (forall ((X3 tptp.tree) (X4 tptp.elt) (X5 tptp.tree)) (=> (= T (tptp.node X3 X4 X5)) (or (= X3 X2) (= X5 X2)))) (<= 0 _let_1) (<= _let_1 A) (forall ((A4 tptp.map_int_elt) (Result Int)) (let ((_let_1 (<= Result A))) (=> (and (<= 0 A) (<= (+ Res 1) Result) _let_1 (forall ((I Int)) (let ((_let_1 (tptp.t2tb I))) (=> (and (<= 0 I) (< I (+ Res 1))) (= (tptp.tb2t1 (tptp.get tptp.elt1 tptp.int (tptp.t2tb2 A4) _let_1)) (tptp.tb2t1 (tptp.get tptp.elt1 tptp.int (tptp.t2tb2 A3) _let_1)))))) (forall ((I Int)) (=> (and (<= (+ Res 1) I) (< I Result)) (tptp.contains X2 (tptp.tb2t1 (tptp.get tptp.elt1 tptp.int (tptp.t2tb2 A4) (tptp.t2tb I))))))) (and (<= Start Result) _let_1 (forall ((I Int)) (let ((_let_1 (tptp.t2tb I))) (=> (and (<= 0 I) (< I Start)) (= (tptp.tb2t1 (tptp.get tptp.elt1 tptp.int (tptp.t2tb2 A4) _let_1)) (tptp.tb2t1 (tptp.get tptp.elt1 tptp.int (tptp.t2tb2 A1) _let_1)))))) (forall ((I Int)) (=> (and (<= Start I) (< I Result)) (tptp.contains T (tptp.tb2t1 (tptp.get tptp.elt1 tptp.int (tptp.t2tb2 A4) (tptp.t2tb I)))))))))))))))) (=> (not _let_3) (and _let_2 _let_1 (forall ((I Int)) (let ((_let_1 (tptp.t2tb I))) (=> (and (<= 0 I) (< I Start)) (= (tptp.tb2t1 (tptp.get tptp.elt1 tptp.int (tptp.t2tb2 A2) _let_1)) (tptp.tb2t1 (tptp.get tptp.elt1 tptp.int (tptp.t2tb2 A1) _let_1)))))) (forall ((I Int)) (=> (and (<= Start I) (< I Res)) (tptp.contains T (tptp.tb2t1 (tptp.get tptp.elt1 tptp.int (tptp.t2tb2 A2) (tptp.t2tb I)))))))))))))))))))))))
(check-sat)
(exit)
